c graph converted from Delauney Triangulation format
c weights on edges removed (lost)
x low 0.00
p edge 225 622
n 0 1.00
n 2 1.00
n 199 1.00
n 4 1.00
n 8 1.00
n 18 1.00
n 1 1.00
n 224 1.00
n 46 1.00
n 206 1.00
n 59 1.00
n 58 1.00
n 56 1.00
n 197 1.00
n 3 1.00
n 196 1.00
n 5 1.00
n 6 1.00
n 7 1.00
n 194 1.00
n 42 1.00
n 41 1.00
n 40 1.00
n 39 1.00
n 9 1.00
n 17 1.00
n 38 1.00
n 10 1.00
n 37 1.00
n 36 1.00
n 11 1.00
n 15 1.00
n 13 1.00
n 12 1.00
n 35 1.00
n 23 1.00
n 22 1.00
n 14 1.00
n 21 1.00
n 16 1.00
n 202 1.00
n 19 1.00
n 20 1.00
n 207 1.00
n 24 1.00
n 33 1.00
n 25 1.00
n 203 1.00
n 26 1.00
n 188 1.00
n 187 1.00
n 27 1.00
n 28 1.00
n 78 1.00
n 80 1.00
n 84 1.00
n 76 1.00
n 29 1.00
n 34 1.00
n 201 1.00
n 30 1.00
n 31 1.00
n 75 1.00
n 215 1.00
n 218 1.00
n 205 1.00
n 32 1.00
n 52 1.00
n 43 1.00
n 51 1.00
n 45 1.00
n 44 1.00
n 47 1.00
n 49 1.00
n 192 1.00
n 217 1.00
n 193 1.00
n 195 1.00
n 223 1.00
n 48 1.00
n 132 1.00
n 189 1.00
n 198 1.00
n 50 1.00
n 54 1.00
n 53 1.00
n 73 1.00
n 55 1.00
n 67 1.00
n 69 1.00
n 71 1.00
n 57 1.00
n 60 1.00
n 116 1.00
n 115 1.00
n 61 1.00
n 62 1.00
n 222 1.00
n 113 1.00
n 63 1.00
n 64 1.00
n 65 1.00
n 111 1.00
n 109 1.00
n 66 1.00
n 107 1.00
n 105 1.00
n 68 1.00
n 219 1.00
n 103 1.00
n 70 1.00
n 101 1.00
n 72 1.00
n 74 1.00
n 99 1.00
n 97 1.00
n 77 1.00
n 216 1.00
n 96 1.00
n 79 1.00
n 94 1.00
n 208 1.00
n 220 1.00
n 81 1.00
n 83 1.00
n 82 1.00
n 91 1.00
n 93 1.00
n 89 1.00
n 209 1.00
n 85 1.00
n 210 1.00
n 130 1.00
n 86 1.00
n 87 1.00
n 127 1.00
n 129 1.00
n 88 1.00
n 104 1.00
n 106 1.00
n 125 1.00
n 126 1.00
n 102 1.00
n 100 1.00
n 90 1.00
n 92 1.00
n 98 1.00
n 95 1.00
n 108 1.00
n 124 1.00
n 110 1.00
n 123 1.00
n 120 1.00
n 112 1.00
n 122 1.00
n 114 1.00
n 118 1.00
n 117 1.00
n 186 1.00
n 185 1.00
n 184 1.00
n 119 1.00
n 174 1.00
n 183 1.00
n 121 1.00
n 170 1.00
n 169 1.00
n 168 1.00
n 167 1.00
n 211 1.00
n 213 1.00
n 166 1.00
n 165 1.00
n 164 1.00
n 221 1.00
n 128 1.00
n 163 1.00
n 131 1.00
n 214 1.00
n 204 1.00
n 190 1.00
n 133 1.00
n 212 1.00
n 134 1.00
n 157 1.00
n 182 1.00
n 135 1.00
n 136 1.00
n 137 1.00
n 138 1.00
n 162 1.00
n 160 1.00
n 158 1.00
n 139 1.00
n 141 1.00
n 140 1.00
n 200 1.00
n 142 1.00
n 143 1.00
n 144 1.00
n 176 1.00
n 145 1.00
n 154 1.00
n 156 1.00
n 146 1.00
n 147 1.00
n 152 1.00
n 175 1.00
n 171 1.00
n 148 1.00
n 149 1.00
n 151 1.00
n 150 1.00
n 153 1.00
n 155 1.00
n 159 1.00
n 161 1.00
n 172 1.00
n 181 1.00
n 173 1.00
n 180 1.00
n 179 1.00
n 178 1.00
n 177 1.00
n 191 1.00
e 0 2
e 0 199
e 0 4
e 0 8
e 0 18
e 1 224
e 1 46
e 1 206
e 1 59
e 1 58
e 1 56
e 2 199
e 2 197
e 2 3
e 2 4
e 3 197
e 3 196
e 3 5
e 3 4
e 4 5
e 4 6
e 4 7
e 4 8
e 5 196
e 5 194
e 5 42
e 5 6
e 6 42
e 6 41
e 6 7
e 7 41
e 7 40
e 7 8
e 8 40
e 8 39
e 8 9
e 8 17
e 8 18
e 9 39
e 9 38
e 9 10
e 9 17
e 10 38
e 10 37
e 10 17
e 10 36
e 10 11
e 11 36
e 11 17
e 11 15
e 11 13
e 11 12
e 11 35
e 12 13
e 12 35
e 12 23
e 12 22
e 13 15
e 13 14
e 13 22
e 13 21
e 14 16
e 14 15
e 14 21
e 15 16
e 15 17
e 16 202
e 16 17
e 16 19
e 16 21
e 16 20
e 17 18
e 17 202
e 18 202
e 19 202
e 19 20
e 20 21
e 21 22
e 22 23
e 23 35
e 23 207
e 24 33
e 24 35
e 24 207
e 24 25
e 25 33
e 25 203
e 26 46
e 26 188
e 26 187
e 27 203
e 27 28
e 27 78
e 27 80
e 27 84
e 28 76
e 28 29
e 28 34
e 28 203
e 28 78
e 28 33
e 29 76
e 29 201
e 29 34
e 30 31
e 30 75
e 30 215
e 30 218
e 30 205
e 31 75
e 31 39
e 31 38
e 31 37
e 31 205
e 31 36
e 31 34
e 31 32
e 32 34
e 32 36
e 32 33
e 32 35
e 33 34
e 33 35
e 33 203
e 34 205
e 34 201
e 35 36
e 35 207
e 36 37
e 37 38
e 38 39
e 39 40
e 39 52
e 39 75
e 40 41
e 40 43
e 40 51
e 40 52
e 41 43
e 41 42
e 42 45
e 42 194
e 42 43
e 43 44
e 43 45
e 43 47
e 43 49
e 43 51
e 44 192
e 44 217
e 44 47
e 44 45
e 45 217
e 45 193
e 45 194
e 46 188
e 46 224
e 46 187
e 46 59
e 47 195
e 47 192
e 47 223
e 47 49
e 48 132
e 48 189
e 48 206
e 48 198
e 48 49
e 48 50
e 49 223
e 49 198
e 49 50
e 49 54
e 49 51
e 50 206
e 50 56
e 50 54
e 51 54
e 51 53
e 51 52
e 52 53
e 52 73
e 52 75
e 53 55
e 53 54
e 53 67
e 53 69
e 53 71
e 53 73
e 54 55
e 54 56
e 55 56
e 55 57
e 55 67
e 56 206
e 56 58
e 56 57
e 57 60
e 57 58
e 57 67
e 58 59
e 58 60
e 59 116
e 59 115
e 59 187
e 59 61
e 59 60
e 60 61
e 60 62
e 60 67
e 61 115
e 61 222
e 61 113
e 61 63
e 61 62
e 62 63
e 62 64
e 62 65
e 62 67
e 63 113
e 63 111
e 63 64
e 63 109
e 64 65
e 64 109
e 64 66
e 64 107
e 64 105
e 65 67
e 65 66
e 66 67
e 66 68
e 66 105
e 66 219
e 66 103
e 67 69
e 67 68
e 68 69
e 68 70
e 68 103
e 68 101
e 69 70
e 69 71
e 70 71
e 70 72
e 70 101
e 71 73
e 71 72
e 72 73
e 72 74
e 72 101
e 72 99
e 73 74
e 73 75
e 74 75
e 74 99
e 74 97
e 74 215
e 75 215
e 76 77
e 76 216
e 76 201
e 76 78
e 77 96
e 77 216
e 77 78
e 77 79
e 78 79
e 78 80
e 79 96
e 79 94
e 79 208
e 79 220
e 79 80
e 80 220
e 80 84
e 81 83
e 81 82
e 81 84
e 81 220
e 82 83
e 82 91
e 82 93
e 82 220
e 83 91
e 83 89
e 83 209
e 83 85
e 83 84
e 84 85
e 84 220
e 85 209
e 85 210
e 85 130
e 86 89
e 86 87
e 86 127
e 86 129
e 86 209
e 87 88
e 87 104
e 87 106
e 87 125
e 87 126
e 87 89
e 87 127
e 88 104
e 88 219
e 88 102
e 88 100
e 88 90
e 88 89
e 89 90
e 89 91
e 89 209
e 90 100
e 90 92
e 90 91
e 91 92
e 91 93
e 92 98
e 92 100
e 92 95
e 92 208
e 92 93
e 93 208
e 93 220
e 94 208
e 94 95
e 94 96
e 95 97
e 95 98
e 95 96
e 95 208
e 96 97
e 96 216
e 97 99
e 97 98
e 97 215
e 97 218
e 97 216
e 98 99
e 98 100
e 99 101
e 99 100
e 100 101
e 100 102
e 101 103
e 101 102
e 102 219
e 102 103
e 103 219
e 104 219
e 104 105
e 104 106
e 105 107
e 105 106
e 105 219
e 106 108
e 106 107
e 106 125
e 107 108
e 107 109
e 108 109
e 108 124
e 108 125
e 109 111
e 109 110
e 109 123
e 109 124
e 110 120
e 110 112
e 110 111
e 110 122
e 110 123
e 111 113
e 111 112
e 112 113
e 112 114
e 112 118
e 112 120
e 113 114
e 113 222
e 114 222
e 114 117
e 114 118
e 115 222
e 115 116
e 116 187
e 116 186
e 116 117
e 116 222
e 117 186
e 117 185
e 117 118
e 117 222
e 118 184
e 118 185
e 118 119
e 118 174
e 118 120
e 119 183
e 119 184
e 119 174
e 119 121
e 120 121
e 120 174
e 120 122
e 121 183
e 121 174
e 121 170
e 121 122
e 122 170
e 122 169
e 122 123
e 123 169
e 123 168
e 123 167
e 123 124
e 124 167
e 124 211
e 124 213
e 124 125
e 125 213
e 125 166
e 125 126
e 126 166
e 126 165
e 126 127
e 127 165
e 127 164
e 127 129
e 127 221
e 127 128
e 127 163
e 128 221
e 128 163
e 128 131
e 128 214
e 129 221
e 129 209
e 129 210
e 130 210
e 130 131
e 131 221
e 131 214
e 131 210
e 132 204
e 132 190
e 132 198
e 132 189
e 133 163
e 133 212
e 133 214
e 133 134
e 134 212
e 134 157
e 134 182
e 135 182
e 135 136
e 135 137
e 135 138
e 136 162
e 136 160
e 136 158
e 136 137
e 136 182
e 137 138
e 137 139
e 137 158
e 138 139
e 138 141
e 139 141
e 139 140
e 139 158
e 140 158
e 140 200
e 140 141
e 141 200
e 142 143
e 142 144
e 142 200
e 142 176
e 143 144
e 143 145
e 143 154
e 143 156
e 143 200
e 144 176
e 144 146
e 144 145
e 145 147
e 145 146
e 145 152
e 145 154
e 146 175
e 146 171
e 146 147
e 146 176
e 147 171
e 147 148
e 147 152
e 148 171
e 148 168
e 148 149
e 148 152
e 148 151
e 149 168
e 149 167
e 149 211
e 149 213
e 149 150
e 149 151
e 150 213
e 150 151
e 150 166
e 150 165
e 151 152
e 151 153
e 151 155
e 151 165
e 152 154
e 152 153
e 153 154
e 153 155
e 154 156
e 154 155
e 155 156
e 155 158
e 155 159
e 155 165
e 155 161
e 156 200
e 156 158
e 157 212
e 157 161
e 157 162
e 157 182
e 158 159
e 158 200
e 158 160
e 159 160
e 159 161
e 160 161
e 160 162
e 161 165
e 161 164
e 161 212
e 161 162
e 162 182
e 163 212
e 163 164
e 163 214
e 164 165
e 164 212
e 165 166
e 166 213
e 167 168
e 167 211
e 168 169
e 168 171
e 169 171
e 169 170
e 170 172
e 170 181
e 170 183
e 170 171
e 171 173
e 171 172
e 171 175
e 172 181
e 172 180
e 172 173
e 173 180
e 173 179
e 173 178
e 173 175
e 175 177
e 175 178
e 175 176
e 176 177
e 177 178
e 178 179
e 179 180
e 180 181
e 181 183
e 183 184
e 184 185
e 185 186
e 186 187
e 188 189
e 188 204
e 188 224
e 189 204
e 189 224
e 189 206
e 190 204
e 190 223
e 190 191
e 190 198
e 191 223
e 191 195
e 192 195
e 192 217
e 193 217
e 193 194
e 194 196
e 195 223
e 196 197
e 197 199
e 198 223
e 201 216
e 201 205
e 205 218
e 205 216
e 206 224
e 208 220
e 209 210
e 210 221
e 211 213
e 215 218
e 216 218
